networks/zoo_26_63/zoo_26_63-lower.sol
<?xml version = "1.0" encoding="UTF-8" standalone="yes"?>
<CPLEXSolution version="1.2">
 <header
   problemName="networks/zoo_26_63/zoo_26_63-lower.lp"
   solutionName="incumbent"
   solutionIndex="-1"
   objectiveValue="11"
   solutionTypeValue="3"
   solutionTypeString="primal"
   solutionStatusValue="101"
   solutionStatusString="integer optimal solution"
   solutionMethodString="mip"
   primalFeasible="1"
   dualFeasible="1"
   MIPNodes="0"
   MIPIterations="0"
   writeLevel="3"/>
 <quality
   epInt="1.0000000000000001e-05"
   epRHS="9.9999999999999995e-07"
   maxIntInfeas="0"
   maxPrimalInfeas="0"
   maxX="1"
   maxSlack="1"/>
 <variables>
  <variable name="Y(1,9)" index="8" value="1"/>
  <variable name="Y(2,11)" index="34" value="1"/>
  <variable name="Y(3,12)" index="59" value="1"/>
  <variable name="Y(6,1)" index="120" value="1"/>
  <variable name="Y(7,3)" index="146" value="1"/>
  <variable name="Y(8,4)" index="171" value="1"/>
  <variable name="Y(9,6)" index="197" value="1"/>
  <variable name="Y(11,10)" index="249" value="1"/>
  <variable name="Y(14,13)" index="324" value="1"/>
  <variable name="Y(18,5)" index="412" value="1"/>
  <variable name="Y(19,8)" index="439" value="1"/>
  <variable name="X(1,5,1)" index="1512" value="1"/>
  <variable name="X(1,14,6)" index="1580" value="1"/>
  <variable name="X(2,5,4)" index="1641" value="1"/>
  <variable name="X(3,16,7)" index="1707" value="1"/>
  <variable name="X(4,6,5)" index="1768" value="1"/>
  <variable name="X(4,17,8)" index="1834" value="1"/>
  <variable name="X(5,1,6)" index="1895" value="1"/>
  <variable name="X(5,3,7)" index="1959" value="1"/>
  <variable name="X(5,11,2)" index="2017" value="1"/>
  <variable name="X(5,12,1)" index="2079" value="1"/>
  <variable name="X(5,18,18)" index="2159" value="1"/>
  <variable name="X(6,4,8)" index="2212" value="1"/>
  <variable name="X(6,8,19)" index="2286" value="1"/>
  <variable name="X(6,9,20)" index="2350" value="1"/>
  <variable name="X(6,10,11)" index="2404" value="1"/>
  <variable name="X(6,11,15)" index="2471" value="1"/>
  <variable name="X(6,12,5)" index="2524" value="1"/>
  <variable name="X(6,19,9)" index="2591" value="1"/>
  <variable name="X(7,6,25)" index="2670" value="1"/>
  <variable name="X(8,6,28)" index="2736" value="1"/>
  <variable name="X(8,21,19)" index="2790" value="1"/>
  <variable name="X(9,6,33)" index="2867" value="1"/>
  <variable name="X(9,10,34)" index="2931" value="1"/>
  <variable name="X(9,11,31)" index="2991" value="1"/>
  <variable name="X(9,12,36)" index="3059" value="1"/>
  <variable name="X(9,22,1)" index="3087" value="1"/>
  <variable name="X(10,6,38)" index="3187" value="1"/>
  <variable name="X(10,9,40)" index="3252" value="1"/>
  <variable name="X(10,23,11)" index="3286" value="1"/>
  <variable name="X(11,5,15)" index="3353" value="1"/>
  <variable name="X(11,6,46)" index="3447" value="1"/>
  <variable name="X(11,9,47)" index="3511" value="1"/>
  <variable name="X(11,13,24)" index="3551" value="1"/>
  <variable name="X(11,24,2)" index="3592" value="1"/>
  <variable name="X(12,5,50)" index="3703" value="1"/>
  <variable name="X(12,6,8)" index="3724" value="1"/>
  <variable name="X(12,9,1)" index="3780" value="1"/>
  <variable name="X(12,13,14)" index="3856" value="1"/>
  <variable name="X(12,25,3)" index="3908" value="1"/>
  <variable name="X(13,11,59)" index="4027" value="1"/>
  <variable name="X(13,12,63)" index="4094" value="1"/>
  <variable name="X(13,26,14)" index="4108" value="1"/>
 </variables>
</CPLEXSolution>
